p edge 745 1342
e 1 9 1
e 1 2 1
e 2 10 1
e 3 11 1
e 3 4 1
e 4 12 1
e 4 5 1
e 5 6 1
e 7 15 1
e 7 8 1
e 8 16 1
e 8 9 1
e 9 17 1
e 9 10 1
e 10 18 1
e 11 24 1
e 11 12 1
e 13 26 1
e 14 15 1
e 15 27 1
e 15 16 1
e 16 28 1
e 16 17 1
e 17 29 1
e 17 18 1
e 19 32 1
e 19 20 1
e 20 33 1
e 20 21 1
e 21 34 1
e 21 22 1
e 22 35 1
e 22 23 1
e 23 36 1
e 23 24 1
e 24 37 1
e 25 38 1
e 25 26 1
e 26 39 1
e 27 43 1
e 27 28 1
e 28 44 1
e 28 29 1
e 29 45 1
e 30 46 1
e 30 31 1
e 31 47 1
e 31 32 1
e 32 48 1
e 32 33 1
e 33 49 1
e 33 34 1
e 34 50 1
e 34 35 1
e 35 51 1
e 35 36 1
e 36 52 1
e 36 37 1
e 37 53 1
e 38 55 1
e 38 39 1
e 39 56 1
e 39 40 1
e 40 57 1
e 41 58 1
e 41 42 1
e 42 59 1
e 42 43 1
e 43 60 1
e 43 44 1
e 44 61 1
e 44 45 1
e 45 62 1
e 46 63 1
e 46 47 1
e 47 64 1
e 47 48 1
e 48 65 1
e 48 49 1
e 49 66 1
e 49 50 1
e 50 67 1
e 50 51 1
e 51 68 1
e 51 52 1
e 52 69 1
e 52 53 1
e 53 70 1
e 54 75 1
e 54 55 1
e 55 76 1
e 55 56 1
e 56 77 1
e 56 57 1
e 57 78 1
e 58 79 1
e 58 59 1
e 59 80 1
e 59 60 1
e 60 81 1
e 60 61 1
e 61 82 1
e 61 62 1
e 62 83 1
e 63 88 1
e 63 64 1
e 64 89 1
e 64 65 1
e 65 90 1
e 65 66 1
e 66 91 1
e 66 67 1
e 67 92 1
e 67 68 1
e 68 93 1
e 68 69 1
e 69 94 1
e 69 70 1
e 70 95 1
e 70 71 1
e 71 96 1
e 71 72 1
e 72 97 1
e 72 73 1
e 73 98 1
e 74 99 1
e 74 75 1
e 75 100 1
e 75 76 1
e 76 101 1
e 76 77 1
e 77 102 1
e 77 78 1
e 78 103 1
e 79 108 1
e 79 80 1
e 80 109 1
e 80 81 1
e 81 110 1
e 81 82 1
e 82 111 1
e 82 83 1
e 83 112 1
e 83 84 1
e 84 113 1
e 84 85 1
e 85 114 1
e 85 86 1
e 86 115 1
e 86 87 1
e 87 116 1
e 87 88 1
e 88 117 1
e 88 89 1
e 89 118 1
e 89 90 1
e 90 119 1
e 90 91 1
e 91 120 1
e 91 92 1
e 92 121 1
e 92 93 1
e 93 122 1
e 93 94 1
e 94 123 1
e 94 95 1
e 95 124 1
e 95 96 1
e 96 125 1
e 96 97 1
e 97 126 1
e 97 98 1
e 98 127 1
e 99 133 1
e 99 100 1
e 100 134 1
e 100 101 1
e 101 135 1
e 101 102 1
e 102 136 1
e 102 103 1
e 103 137 1
e 103 104 1
e 104 138 1
e 104 105 1
e 105 139 1
e 105 106 1
e 106 140 1
e 106 107 1
e 107 141 1
e 108 142 1
e 108 109 1
e 109 143 1
e 109 110 1
e 110 144 1
e 110 111 1
e 111 112 1
e 112 145 1
e 112 113 1
e 113 146 1
e 113 114 1
e 114 147 1
e 114 115 1
e 115 148 1
e 115 116 1
e 116 149 1
e 116 117 1
e 117 150 1
e 117 118 1
e 118 151 1
e 118 119 1
e 119 152 1
e 119 120 1
e 120 153 1
e 120 121 1
e 121 154 1
e 121 122 1
e 122 155 1
e 122 123 1
e 123 156 1
e 123 124 1
e 124 157 1
e 124 125 1
e 125 158 1
e 125 126 1
e 126 159 1
e 126 127 1
e 127 160 1
e 127 128 1
e 128 161 1
e 128 129 1
e 129 162 1
e 129 130 1
e 130 163 1
e 130 131 1
e 131 164 1
e 131 132 1
e 132 165 1
e 132 133 1
e 133 166 1
e 133 134 1
e 134 167 1
e 134 135 1
e 135 168 1
e 135 136 1
e 136 169 1
e 136 137 1
e 137 170 1
e 137 138 1
e 138 171 1
e 138 139 1
e 139 172 1
e 139 140 1
e 140 173 1
e 140 141 1
e 141 174 1
e 142 175 1
e 142 143 1
e 143 176 1
e 143 144 1
e 144 177 1
e 145 179 1
e 145 146 1
e 146 147 1
e 147 148 1
e 148 149 1
e 149 150 1
e 150 180 1
e 150 151 1
e 151 181 1
e 151 152 1
e 152 182 1
e 152 153 1
e 153 183 1
e 153 154 1
e 154 184 1
e 154 155 1
e 155 185 1
e 155 156 1
e 156 186 1
e 156 157 1
e 157 187 1
e 157 158 1
e 158 188 1
e 158 159 1
e 159 189 1
e 159 160 1
e 160 190 1
e 160 161 1
e 161 191 1
e 161 162 1
e 162 192 1
e 162 163 1
e 163 193 1
e 163 164 1
e 164 194 1
e 164 165 1
e 165 195 1
e 165 166 1
e 166 196 1
e 166 167 1
e 167 197 1
e 167 168 1
e 168 198 1
e 168 169 1
e 169 199 1
e 169 170 1
e 170 200 1
e 170 171 1
e 171 201 1
e 171 172 1
e 172 202 1
e 172 173 1
e 173 203 1
e 173 174 1
e 174 204 1
e 175 205 1
e 175 176 1
e 176 206 1
e 176 177 1
e 177 207 1
e 177 178 1
e 178 208 1
e 178 179 1
e 179 209 1
e 180 210 1
e 180 181 1
e 181 211 1
e 181 182 1
e 182 212 1
e 182 183 1
e 183 213 1
e 183 184 1
e 184 214 1
e 184 185 1
e 185 215 1
e 185 186 1
e 186 216 1
e 186 187 1
e 187 217 1
e 187 188 1
e 188 218 1
e 188 189 1
e 189 219 1
e 189 190 1
e 190 220 1
e 190 191 1
e 191 221 1
e 191 192 1
e 192 222 1
e 192 193 1
e 193 223 1
e 193 194 1
e 194 224 1
e 194 195 1
e 195 225 1
e 195 196 1
e 196 226 1
e 196 197 1
e 197 227 1
e 197 198 1
e 198 228 1
e 198 199 1
e 199 229 1
e 199 200 1
e 200 230 1
e 200 201 1
e 201 231 1
e 201 202 1
e 202 232 1
e 202 203 1
e 203 233 1
e 203 204 1
e 204 234 1
e 205 235 1
e 205 206 1
e 206 236 1
e 206 207 1
e 207 237 1
e 207 208 1
e 208 238 1
e 208 209 1
e 209 239 1
e 210 240 1
e 210 211 1
e 211 241 1
e 211 212 1
e 212 242 1
e 212 213 1
e 213 243 1
e 213 214 1
e 214 244 1
e 214 215 1
e 215 245 1
e 215 216 1
e 216 246 1
e 216 217 1
e 217 247 1
e 217 218 1
e 218 248 1
e 218 219 1
e 219 249 1
e 219 220 1
e 220 250 1
e 220 221 1
e 221 251 1
e 221 222 1
e 222 252 1
e 222 223 1
e 223 253 1
e 223 224 1
e 224 254 1
e 224 225 1
e 225 255 1
e 225 226 1
e 226 256 1
e 226 227 1
e 227 257 1
e 227 228 1
e 228 258 1
e 228 229 1
e 229 259 1
e 229 230 1
e 230 260 1
e 230 231 1
e 231 261 1
e 231 232 1
e 232 262 1
e 232 233 1
e 233 263 1
e 233 234 1
e 234 264 1
e 235 236 1
e 236 265 1
e 236 237 1
e 237 266 1
e 237 238 1
e 238 267 1
e 238 239 1
e 239 268 1
e 240 271 1
e 240 241 1
e 241 272 1
e 241 242 1
e 242 273 1
e 242 243 1
e 243 274 1
e 243 244 1
e 244 275 1
e 244 245 1
e 245 276 1
e 245 246 1
e 246 277 1
e 246 247 1
e 247 278 1
e 247 248 1
e 248 279 1
e 248 249 1
e 249 280 1
e 249 250 1
e 250 281 1
e 250 251 1
e 251 282 1
e 251 252 1
e 252 283 1
e 252 253 1
e 253 284 1
e 253 254 1
e 254 285 1
e 254 255 1
e 255 286 1
e 255 256 1
e 256 287 1
e 256 257 1
e 257 288 1
e 257 258 1
e 258 289 1
e 258 259 1
e 259 290 1
e 259 260 1
e 260 291 1
e 260 261 1
e 261 292 1
e 261 262 1
e 262 293 1
e 262 263 1
e 263 294 1
e 263 264 1
e 264 295 1
e 265 266 1
e 266 296 1
e 266 267 1
e 267 297 1
e 267 268 1
e 268 298 1
e 268 269 1
e 269 299 1
e 270 300 1
e 270 271 1
e 271 301 1
e 271 272 1
e 272 302 1
e 272 273 1
e 273 303 1
e 273 274 1
e 274 304 1
e 274 275 1
e 275 305 1
e 275 276 1
e 276 306 1
e 276 277 1
e 277 307 1
e 277 278 1
e 278 308 1
e 278 279 1
e 279 309 1
e 279 280 1
e 280 310 1
e 280 281 1
e 281 311 1
e 281 282 1
e 282 312 1
e 282 283 1
e 283 313 1
e 283 284 1
e 284 314 1
e 284 285 1
e 285 315 1
e 285 286 1
e 286 316 1
e 286 287 1
e 287 317 1
e 287 288 1
e 288 318 1
e 288 289 1
e 289 319 1
e 289 290 1
e 290 291 1
e 291 292 1
e 292 293 1
e 293 294 1
e 294 295 1
e 296 297 1
e 297 298 1
e 298 299 1
e 299 320 1
e 300 321 1
e 300 301 1
e 301 322 1
e 301 302 1
e 302 323 1
e 302 303 1
e 303 324 1
e 303 304 1
e 304 325 1
e 304 305 1
e 305 326 1
e 305 306 1
e 306 327 1
e 306 307 1
e 307 328 1
e 307 308 1
e 308 329 1
e 308 309 1
e 309 330 1
e 309 310 1
e 310 331 1
e 310 311 1
e 311 332 1
e 311 312 1
e 312 333 1
e 312 313 1
e 313 334 1
e 313 314 1
e 314 335 1
e 314 315 1
e 315 336 1
e 315 316 1
e 316 337 1
e 316 317 1
e 317 338 1
e 317 318 1
e 318 339 1
e 318 319 1
e 319 340 1
e 321 322 1
e 322 323 1
e 323 324 1
e 324 325 1
e 325 342 1
e 325 326 1
e 326 343 1
e 326 327 1
e 327 344 1
e 327 328 1
e 328 345 1
e 328 329 1
e 329 346 1
e 329 330 1
e 330 347 1
e 330 331 1
e 331 348 1
e 331 332 1
e 332 349 1
e 332 333 1
e 333 350 1
e 333 334 1
e 334 351 1
e 334 335 1
e 335 352 1
e 335 336 1
e 336 353 1
e 336 337 1
e 337 354 1
e 337 338 1
e 338 355 1
e 338 339 1
e 339 356 1
e 339 340 1
e 340 341 1
e 342 357 1
e 342 343 1
e 343 358 1
e 343 344 1
e 344 359 1
e 344 345 1
e 345 360 1
e 345 346 1
e 346 361 1
e 346 347 1
e 347 362 1
e 347 348 1
e 348 363 1
e 348 349 1
e 349 364 1
e 349 350 1
e 350 365 1
e 350 351 1
e 351 366 1
e 351 352 1
e 352 367 1
e 352 353 1
e 353 368 1
e 353 354 1
e 354 355 1
e 355 356 1
e 357 369 1
e 357 358 1
e 358 359 1
e 359 360 1
e 360 361 1
e 361 362 1
e 362 363 1
e 363 370 1
e 363 364 1
e 364 371 1
e 364 365 1
e 365 372 1
e 365 366 1
e 366 367 1
e 367 368 1
e 370 373 1
e 370 371 1
e 371 374 1
e 371 372 1
e 372 375 1
e 373 376 1
e 373 374 1
e 374 377 1
e 374 375 1
e 375 378 1
e 376 381 1
e 376 377 1
e 377 382 1
e 377 378 1
e 378 383 1
e 379 387 1
e 379 380 1
e 380 388 1
e 381 393 1
e 381 382 1
e 382 394 1
e 382 383 1
e 383 395 1
e 384 399 1
e 384 385 1
e 385 400 1
e 385 386 1
e 386 401 1
e 387 388 1
e 388 389 1
e 389 402 1
e 389 390 1
e 390 403 1
e 390 391 1
e 391 404 1
e 391 392 1
e 392 405 1
e 392 393 1
e 393 406 1
e 393 394 1
e 394 407 1
e 394 395 1
e 395 408 1
e 395 396 1
e 396 409 1
e 396 397 1
e 397 410 1
e 397 398 1
e 398 411 1
e 398 399 1
e 399 412 1
e 399 400 1
e 400 413 1
e 400 401 1
e 401 414 1
e 402 415 1
e 402 403 1
e 403 416 1
e 403 404 1
e 404 417 1
e 404 405 1
e 405 418 1
e 405 406 1
e 406 419 1
e 406 407 1
e 407 420 1
e 407 408 1
e 408 421 1
e 408 409 1
e 409 422 1
e 409 410 1
e 410 423 1
e 410 411 1
e 411 424 1
e 411 412 1
e 412 425 1
e 412 413 1
e 413 426 1
e 413 414 1
e 414 427 1
e 415 428 1
e 415 416 1
e 416 429 1
e 416 417 1
e 417 430 1
e 417 418 1
e 418 431 1
e 418 419 1
e 419 432 1
e 419 420 1
e 420 433 1
e 420 421 1
e 421 434 1
e 421 422 1
e 422 435 1
e 422 423 1
e 423 436 1
e 423 424 1
e 424 437 1
e 424 425 1
e 425 438 1
e 425 426 1
e 426 427 1
e 428 439 1
e 428 429 1
e 429 440 1
e 429 430 1
e 430 441 1
e 430 431 1
e 431 442 1
e 431 432 1
e 432 443 1
e 432 433 1
e 433 444 1
e 433 434 1
e 434 445 1
e 434 435 1
e 435 446 1
e 435 436 1
e 436 447 1
e 436 437 1
e 437 448 1
e 437 438 1
e 438 449 1
e 439 451 1
e 439 440 1
e 440 452 1
e 440 441 1
e 441 453 1
e 441 442 1
e 442 454 1
e 442 443 1
e 443 455 1
e 443 444 1
e 444 456 1
e 444 445 1
e 445 457 1
e 445 446 1
e 446 458 1
e 446 447 1
e 447 459 1
e 447 448 1
e 448 460 1
e 448 449 1
e 449 461 1
e 450 463 1
e 451 466 1
e 451 452 1
e 452 467 1
e 452 453 1
e 453 468 1
e 453 454 1
e 454 469 1
e 454 455 1
e 455 470 1
e 455 456 1
e 456 471 1
e 456 457 1
e 457 472 1
e 457 458 1
e 458 473 1
e 458 459 1
e 459 474 1
e 459 460 1
e 460 475 1
e 460 461 1
e 461 476 1
e 462 479 1
e 462 463 1
e 463 480 1
e 463 464 1
e 464 481 1
e 464 465 1
e 466 482 1
e 466 467 1
e 467 483 1
e 467 468 1
e 468 484 1
e 468 469 1
e 469 485 1
e 469 470 1
e 470 486 1
e 470 471 1
e 471 487 1
e 471 472 1
e 472 488 1
e 472 473 1
e 473 489 1
e 473 474 1
e 474 490 1
e 474 475 1
e 475 491 1
e 475 476 1
e 476 492 1
e 476 477 1
e 477 493 1
e 478 494 1
e 478 479 1
e 479 495 1
e 479 480 1
e 480 496 1
e 480 481 1
e 481 497 1
e 482 498 1
e 482 483 1
e 483 499 1
e 483 484 1
e 484 500 1
e 484 485 1
e 485 501 1
e 485 486 1
e 486 502 1
e 486 487 1
e 487 503 1
e 487 488 1
e 488 504 1
e 488 489 1
e 489 505 1
e 489 490 1
e 490 506 1
e 490 491 1
e 491 507 1
e 491 492 1
e 492 508 1
e 492 493 1
e 493 509 1
e 494 510 1
e 494 495 1
e 495 511 1
e 495 496 1
e 496 512 1
e 496 497 1
e 497 513 1
e 498 516 1
e 498 499 1
e 499 517 1
e 499 500 1
e 500 518 1
e 500 501 1
e 501 519 1
e 501 502 1
e 502 520 1
e 502 503 1
e 503 521 1
e 503 504 1
e 504 522 1
e 504 505 1
e 505 523 1
e 505 506 1
e 506 524 1
e 506 507 1
e 507 525 1
e 507 508 1
e 508 526 1
e 508 509 1
e 509 527 1
e 510 511 1
e 511 530 1
e 511 512 1
e 512 531 1
e 512 513 1
e 513 532 1
e 514 533 1
e 514 515 1
e 515 534 1
e 515 516 1
e 516 535 1
e 516 517 1
e 517 536 1
e 517 518 1
e 518 537 1
e 518 519 1
e 519 538 1
e 519 520 1
e 520 539 1
e 520 521 1
e 521 540 1
e 521 522 1
e 522 541 1
e 522 523 1
e 523 542 1
e 523 524 1
e 524 543 1
e 524 525 1
e 525 544 1
e 525 526 1
e 526 545 1
e 526 527 1
e 527 546 1
e 527 528 1
e 528 547 1
e 528 529 1
e 529 548 1
e 530 549 1
e 530 531 1
e 531 550 1
e 531 532 1
e 532 551 1
e 533 553 1
e 533 534 1
e 534 554 1
e 534 535 1
e 535 555 1
e 535 536 1
e 536 556 1
e 536 537 1
e 537 557 1
e 537 538 1
e 538 558 1
e 538 539 1
e 539 559 1
e 539 540 1
e 540 560 1
e 540 541 1
e 541 561 1
e 541 542 1
e 542 562 1
e 542 543 1
e 543 563 1
e 543 544 1
e 544 564 1
e 544 545 1
e 545 565 1
e 545 546 1
e 546 566 1
e 546 547 1
e 547 567 1
e 547 548 1
e 548 568 1
e 549 571 1
e 549 550 1
e 550 572 1
e 550 551 1
e 551 573 1
e 551 552 1
e 552 574 1
e 553 575 1
e 553 554 1
e 554 576 1
e 554 555 1
e 555 577 1
e 555 556 1
e 556 578 1
e 556 557 1
e 557 579 1
e 557 558 1
e 558 580 1
e 558 559 1
e 559 581 1
e 559 560 1
e 560 582 1
e 560 561 1
e 561 583 1
e 561 562 1
e 562 584 1
e 562 563 1
e 563 585 1
e 563 564 1
e 564 586 1
e 564 565 1
e 565 587 1
e 565 566 1
e 566 588 1
e 566 567 1
e 567 589 1
e 567 568 1
e 568 590 1
e 569 593 1
e 569 570 1
e 570 594 1
e 570 571 1
e 571 595 1
e 571 572 1
e 572 596 1
e 572 573 1
e 573 574 1
e 575 576 1
e 576 597 1
e 576 577 1
e 577 598 1
e 577 578 1
e 578 599 1
e 578 579 1
e 579 600 1
e 579 580 1
e 580 601 1
e 580 581 1
e 581 602 1
e 581 582 1
e 582 603 1
e 582 583 1
e 583 604 1
e 583 584 1
e 584 605 1
e 584 585 1
e 585 606 1
e 585 586 1
e 586 607 1
e 586 587 1
e 587 608 1
e 587 588 1
e 588 609 1
e 588 589 1
e 589 610 1
e 589 590 1
e 590 611 1
e 590 591 1
e 591 612 1
e 591 592 1
e 592 613 1
e 592 593 1
e 593 614 1
e 593 594 1
e 594 615 1
e 594 595 1
e 595 616 1
e 595 596 1
e 596 617 1
e 597 618 1
e 597 598 1
e 598 619 1
e 598 599 1
e 599 620 1
e 599 600 1
e 600 621 1
e 600 601 1
e 601 622 1
e 601 602 1
e 602 623 1
e 602 603 1
e 603 624 1
e 603 604 1
e 604 625 1
e 604 605 1
e 605 626 1
e 605 606 1
e 606 627 1
e 606 607 1
e 607 628 1
e 607 608 1
e 608 629 1
e 608 609 1
e 609 630 1
e 609 610 1
e 610 631 1
e 610 611 1
e 611 632 1
e 611 612 1
e 612 633 1
e 612 613 1
e 613 634 1
e 613 614 1
e 614 635 1
e 614 615 1
e 615 636 1
e 615 616 1
e 616 637 1
e 616 617 1
e 617 638 1
e 618 640 1
e 618 619 1
e 619 641 1
e 619 620 1
e 620 642 1
e 620 621 1
e 621 643 1
e 621 622 1
e 622 644 1
e 622 623 1
e 623 645 1
e 623 624 1
e 624 646 1
e 624 625 1
e 625 647 1
e 625 626 1
e 626 648 1
e 626 627 1
e 627 649 1
e 627 628 1
e 628 650 1
e 628 629 1
e 629 651 1
e 629 630 1
e 630 652 1
e 630 631 1
e 631 653 1
e 631 632 1
e 632 654 1
e 632 633 1
e 633 655 1
e 633 634 1
e 634 656 1
e 634 635 1
e 635 657 1
e 635 636 1
e 636 658 1
e 636 637 1
e 637 659 1
e 637 638 1
e 638 660 1
e 639 661 1
e 639 640 1
e 640 662 1
e 640 641 1
e 641 663 1
e 641 642 1
e 642 664 1
e 642 643 1
e 643 665 1
e 643 644 1
e 644 666 1
e 644 645 1
e 645 667 1
e 645 646 1
e 646 668 1
e 646 647 1
e 647 669 1
e 647 648 1
e 648 670 1
e 648 649 1
e 649 671 1
e 649 650 1
e 650 672 1
e 650 651 1
e 651 673 1
e 651 652 1
e 652 674 1
e 652 653 1
e 653 675 1
e 653 654 1
e 654 676 1
e 654 655 1
e 655 677 1
e 655 656 1
e 656 678 1
e 656 657 1
e 657 679 1
e 657 658 1
e 658 680 1
e 658 659 1
e 659 681 1
e 659 660 1
e 660 682 1
e 661 684 1
e 661 662 1
e 662 685 1
e 662 663 1
e 663 686 1
e 663 664 1
e 664 687 1
e 664 665 1
e 665 688 1
e 665 666 1
e 666 689 1
e 666 667 1
e 667 690 1
e 667 668 1
e 668 691 1
e 668 669 1
e 669 692 1
e 669 670 1
e 670 693 1
e 670 671 1
e 671 694 1
e 671 672 1
e 672 695 1
e 672 673 1
e 673 696 1
e 673 674 1
e 674 697 1
e 674 675 1
e 675 698 1
e 675 676 1
e 676 699 1
e 676 677 1
e 677 700 1
e 677 678 1
e 678 701 1
e 678 679 1
e 679 680 1
e 680 702 1
e 680 681 1
e 681 703 1
e 681 682 1
e 682 704 1
e 682 683 1
e 684 705 1
e 684 685 1
e 685 706 1
e 685 686 1
e 686 707 1
e 686 687 1
e 687 708 1
e 687 688 1
e 688 709 1
e 688 689 1
e 689 710 1
e 689 690 1
e 690 711 1
e 690 691 1
e 691 712 1
e 691 692 1
e 692 713 1
e 692 693 1
e 693 714 1
e 693 694 1
e 694 715 1
e 694 695 1
e 695 716 1
e 695 696 1
e 696 717 1
e 696 697 1
e 697 718 1
e 697 698 1
e 698 719 1
e 698 699 1
e 699 700 1
e 700 701 1
e 702 703 1
e 703 704 1
e 705 720 1
e 705 706 1
e 706 721 1
e 706 707 1
e 707 722 1
e 707 708 1
e 708 723 1
e 708 709 1
e 709 724 1
e 709 710 1
e 710 725 1
e 710 711 1
e 711 726 1
e 711 712 1
e 712 727 1
e 712 713 1
e 713 728 1
e 713 714 1
e 714 729 1
e 714 715 1
e 715 730 1
e 715 716 1
e 716 731 1
e 716 717 1
e 717 732 1
e 717 718 1
e 718 733 1
e 718 719 1
e 719 734 1
e 720 735 1
e 720 721 1
e 721 736 1
e 721 722 1
e 722 723 1
e 723 724 1
e 724 725 1
e 725 726 1
e 726 737 1
e 726 727 1
e 727 738 1
e 727 728 1
e 728 739 1
e 728 729 1
e 729 730 1
e 730 731 1
e 731 732 1
e 732 740 1
e 732 733 1
e 733 741 1
e 733 734 1
e 734 742 1
e 735 736 1
e 737 743 1
e 737 738 1
e 738 744 1
e 738 739 1
e 739 745 1
e 740 741 1
e 741 742 1
e 743 744 1
e 744 745 1